55
2 0 1
2 1 1
4 0 1
4 1 1
4 2 1
4 3 1
5 2 1
5 3 1
6 4 1
6 5 1
7 0 1
7 1 1
7 2 1
7 3 1
7 5 1
8 1 1
8 2 1
8 4 1
8 6 1
9 6 1
10 0 1
10 1 1
10 2 1
10 4 1
10 5 1
10 6 1
10 7 1
10 9 1
11 0 1
11 1 1
11 5 1
11 6 1
11 7 1
11 8 1
11 9 1
12 0 1
12 2 1
12 3 1
12 4 1
12 5 1
12 6 1
12 9 1
12 10 1
13 2 1
13 4 1
13 8 1
13 9 1
13 11 1
14 0 1
14 1 1
14 2 1
14 6 1
14 7 1
14 10 1
14 12 1
14 13 1
15 0 1
15 1 1
15 6 1
15 7 1
15 8 1
15 9 1
15 12 1
15 13 1
15 14 1
16 3 1
16 4 1
16 6 1
16 10 1
16 12 1
17 1 1
17 2 1
17 4 1
17 5 1
17 7 1
17 10 1
17 14 1
17 15 1
17 16 1
18 1 1
18 2 1
18 3 1
18 8 1
18 10 1
18 11 1
18 13 1
18 14 1
18 15 1
19 0 1
19 4 1
19 6 1
19 7 1
19 9 1
19 10 1
19 13 1
19 14 1
19 17 1
20 2 1
20 3 1
20 4 1
20 9 1
20 11 1
20 14 1
20 15 1
20 17 1
20 18 1
20 19 1
21 1 1
21 2 1
21 4 1
21 5 1
21 6 1
21 7 1
21 10 1
21 11 1
21 14 1
21 20 1
22 1 1
22 3 1
22 4 1
22 6 1
22 10 1
22 12 1
22 13 1
22 15 1
22 16 1
22 17 1
22 19 1
22 20 1
23 1 1
23 2 1
23 3 1
23 5 1
23 6 1
23 8 1
23 10 1
23 12 1
23 13 1
23 15 1
23 16 1
23 18 1
23 21 1
23 22 1
24 0 1
24 1 1
24 2 1
24 4 1
24 6 1
24 8 1
24 13 1
24 16 1
24 20 1
24 21 1
24 22 1
24 23 1
25 0 1
25 1 1
25 6 1
25 7 1
25 11 1
25 12 1
25 13 1
25 15 1
25 24 1
26 1 1
26 5 1
26 9 1
26 13 1
26 14 1
26 15 1
26 17 1
26 20 1
26 21 1
26 22 1
26 23 1
26 25 1
27 2 1
27 3 1
27 6 1
27 7 1
27 8 1
27 10 1
27 12 1
27 14 1
27 16 1
27 19 1
27 22 1
27 23 1
27 24 1
27 25 1
28 9 1
28 14 1
28 15 1
28 16 1
28 20 1
28 27 1
29 2 1
29 3 1
29 4 1
29 6 1
29 16 1
29 17 1
29 18 1
29 20 1
29 21 1
29 22 1
29 23 1
29 26 1
29 27 1
29 28 1
30 4 1
30 5 1
30 7 1
30 8 1
30 10 1
30 12 1
30 14 1
30 16 1
30 20 1
30 21 1
30 22 1
30 23 1
30 24 1
30 25 1
30 26 1
30 28 1
31 0 1
31 1 1
31 2 1
31 5 1
31 9 1
31 10 1
31 11 1
31 14 1
31 17 1
31 18 1
31 19 1
31 23 1
31 27 1
31 28 1
32 0 1
32 4 1
32 5 1
32 8 1
32 11 1
32 12 1
32 15 1
32 17 1
32 18 1
32 20 1
32 21 1
32 23 1
32 29 1
32 30 1
33 0 1
33 2 1
33 3 1
33 4 1
33 6 1
33 7 1
33 9 1
33 10 1
33 14 1
33 16 1
33 17 1
33 18 1
33 20 1
33 23 1
33 24 1
33 25 1
33 26 1
33 28 1
33 31 1
34 0 1
34 2 1
34 4 1
34 7 1
34 11 1
34 12 1
34 24 1
34 25 1
34 26 1
34 27 1
34 30 1
34 32 1
35 4 1
35 8 1
35 10 1
35 12 1
35 13 1
35 14 1
35 15 1
35 16 1
35 19 1
35 23 1
35 25 1
35 26 1
35 27 1
35 28 1
35 30 1
35 31 1
35 32 1
35 33 1
36 6 1
36 7 1
36 10 1
36 13 1
36 14 1
36 22 1
36 24 1
36 26 1
36 29 1
36 31 1
36 33 1
36 34 1
37 1 1
37 4 1
37 5 1
37 7 1
37 14 1
37 16 1
37 17 1
37 18 1
37 20 1
37 21 1
37 22 1
37 23 1
37 24 1
37 25 1
37 29 1
37 30 1
37 34 1
37 35 1
38 1 1
38 4 1
38 7 1
38 10 1
38 11 1
38 12 1
38 15 1
38 18 1
38 19 1
38 21 1
38 22 1
38 23 1
38 24 1
38 25 1
38 29 1
38 30 1
38 33 1
38 34 1
38 35 1
38 36 1
38 37 1
39 3 1
39 5 1
39 6 1
39 7 1
39 8 1
39 9 1
39 11 1
39 12 1
39 15 1
39 16 1
39 17 1
39 20 1
39 21 1
39 24 1
39 25 1
39 26 1
39 27 1
39 29 1
39 30 1
39 34 1
39 37 1
40 0 1
40 1 1
40 2 1
40 3 1
40 4 1
40 8 1
40 12 1
40 13 1
40 14 1
40 18 1
40 21 1
40 22 1
40 24 1
40 25 1
40 27 1
40 31 1
40 34 1
40 35 1
40 37 1
40 38 1
40 39 1
41 1 1
41 4 1
41 6 1
41 7 1
41 10 1
41 11 1
41 13 1
41 16 1
41 18 1
41 19 1
41 25 1
41 26 1
41 27 1
41 29 1
41 30 1
41 34 1
41 35 1
41 36 1
41 38 1
41 39 1
42 2 1
42 4 1
42 6 1
42 7 1
42 8 1
42 9 1
42 10 1
42 11 1
42 12 1
42 13 1
42 14 1
42 16 1
42 18 1
42 23 1
42 30 1
42 31 1
42 32 1
42 33 1
42 34 1
42 35 1
42 36 1
43 2 1
43 3 1
43 4 1
43 5 1
43 6 1
43 9 1
43 10 1
43 12 1
43 13 1
43 14 1
43 15 1
43 16 1
43 18 1
43 20 1
43 21 1
43 22 1
43 23 1
43 24 1
43 25 1
43 26 1
43 27 1
43 34 1
43 35 1
43 38 1
43 41 1
44 2 1
44 3 1
44 4 1
44 6 1
44 7 1
44 8 1
44 10 1
44 15 1
44 16 1
44 20 1
44 25 1
44 26 1
44 27 1
44 28 1
44 30 1
44 31 1
44 32 1
44 35 1
44 36 1
44 37 1
44 39 1
44 40 1
44 41 1
45 0 1
45 2 1
45 3 1
45 5 1
45 6 1
45 9 1
45 11 1
45 12 1
45 16 1
45 18 1
45 19 1
45 23 1
45 24 1
45 25 1
45 29 1
45 35 1
45 37 1
45 38 1
45 39 1
45 40 1
45 42 1
46 2 1
46 4 1
46 7 1
46 8 1
46 9 1
46 14 1
46 15 1
46 16 1
46 17 1
46 19 1
46 20 1
46 21 1
46 24 1
46 25 1
46 26 1
46 28 1
46 29 1
46 32 1
46 33 1
46 34 1
46 37 1
46 38 1
46 39 1
46 40 1
46 42 1
46 43 1
46 44 1
46 45 1
47 1 1
47 3 1
47 4 1
47 5 1
47 6 1
47 8 1
47 10 1
47 11 1
47 14 1
47 15 1
47 19 1
47 20 1
47 23 1
47 24 1
47 26 1
47 29 1
47 30 1
47 31 1
47 32 1
47 33 1
47 34 1
47 36 1
47 40 1
47 41 1
47 43 1
47 45 1
47 46 1
48 1 1
48 2 1
48 6 1
48 10 1
48 11 1
48 12 1
48 13 1
48 14 1
48 17 1
48 18 1
48 19 1
48 20 1
48 21 1
48 22 1
48 23 1
48 25 1
48 26 1
48 28 1
48 29 1
48 32 1
48 33 1
48 35 1
48 41 1
48 43 1
48 44 1
48 45 1
48 47 1
49 1 1
49 5 1
49 8 1
49 9 1
49 10 1
49 16 1
49 18 1
49 19 1
49 20 1
49 21 1
49 22 1
49 23 1
49 24 1
49 25 1
49 26 1
49 31 1
49 33 1
49 35 1
49 42 1
49 43 1
49 44 1
49 45 1
49 46 1
49 47 1
50 0 1
50 2 1
50 3 1
50 5 1
50 6 1
50 8 1
50 11 1
50 14 1
50 15 1
50 16 1
50 18 1
50 19 1
50 20 1
50 21 1
50 22 1
50 24 1
50 26 1
50 29 1
50 31 1
50 32 1
50 35 1
50 36 1
50 37 1
50 39 1
50 40 1
50 46 1
50 47 1
50 49 1
51 0 1
51 1 1
51 2 1
51 5 1
51 9 1
51 10 1
51 11 1
51 13 1
51 15 1
51 17 1
51 18 1
51 20 1
51 21 1
51 24 1
51 31 1
51 33 1
51 34 1
51 37 1
51 39 1
51 40 1
51 44 1
51 48 1
51 50 1
52 0 1
52 1 1
52 2 1
52 3 1
52 4 1
52 5 1
52 6 1
52 8 1
52 9 1
52 10 1
52 11 1
52 14 1
52 15 1
52 17 1
52 18 1
52 21 1
52 23 1
52 24 1
52 26 1
52 27 1
52 28 1
52 32 1
52 34 1
52 35 1
52 36 1
52 37 1
52 38 1
52 40 1
52 41 1
52 42 1
52 45 1
52 48 1
53 1 1
53 2 1
53 3 1
53 5 1
53 6 1
53 7 1
53 8 1
53 9 1
53 13 1
53 15 1
53 16 1
53 18 1
53 29 1
53 36 1
53 37 1
53 42 1
53 43 1
53 44 1
53 45 1
53 47 1
53 48 1
54 7 1
54 8 1
54 11 1
54 17 1
54 20 1
54 22 1
54 25 1
54 26 1
54 27 1
54 28 1
54 30 1
54 31 1
54 32 1
54 33 1
54 36 1
54 38 1
54 40 1
54 41 1
54 42 1
54 43 1
54 44 1
54 45 1
54 46 1
54 49 1
54 50 1
54 51 1
54 52 1
54 53 1
